30
1 0 8
2 0 8
3 1 7
3 2 9
4 0 10
4 1 4
4 2 5
5 0 4
5 2 5
6 0 5
6 1 8
6 2 6
6 3 6
7 3 7
7 4 9
7 6 1
8 1 7
8 2 5
8 5 7
8 7 4
9 3 10
9 7 5
9 8 9
10 0 3
10 1 3
10 3 8
10 4 8
10 5 2
10 7 2
11 2 3
11 8 3
12 4 2
12 5 3
12 6 8
12 7 7
12 8 4
12 9 1
12 11 7
13 2 1
13 4 4
13 5 3
13 6 6
13 7 3
13 8 4
13 10 4
14 3 10
14 4 3
14 13 9
15 1 6
15 2 8
15 3 3
15 4 2
15 7 9
15 8 2
15 9 5
15 11 9
16 5 3
16 6 8
16 7 5
16 8 10
16 9 7
16 14 4
16 15 9
17 2 2
17 4 7
17 10 6
17 14 7
17 16 9
18 1 5
18 2 9
18 5 7
18 7 2
18 8 2
18 9 9
18 14 5
18 17 8
19 0 9
19 1 8
19 2 8
19 10 5
19 12 6
20 3 4
20 9 5
20 14 10
20 15 2
20 17 3
21 7 9
21 11 2
21 13 5
21 15 1
21 16 1
21 19 8
22 2 8
22 4 2
22 6 1
22 8 7
22 9 6
22 13 6
22 16 7
22 17 6
22 18 2
23 2 1
23 5 10
23 6 9
23 9 5
23 10 9
23 12 6
23 13 1
23 16 8
23 18 1
23 20 6
24 0 2
24 1 9
24 3 8
24 5 5
24 6 2
24 10 10
24 13 2
24 16 8
24 18 1
24 19 9
24 20 9
24 21 4
25 0 5
25 2 5
25 4 10
25 6 5
25 7 9
25 14 6
25 17 5
25 22 1
26 0 10
26 4 1
26 6 9
26 7 4
26 10 4
26 11 5
26 12 6
26 14 9
26 16 8
26 17 6
26 19 8
26 21 8
26 22 10
26 24 8
27 0 2
27 4 4
27 5 2
27 8 8
27 9 10
27 14 9
27 18 2
27 20 9
27 24 4
27 25 6
28 1 2
28 3 3
28 11 1
28 14 9
28 17 2
28 19 4
28 20 7
28 22 5
28 23 9
28 24 7
28 27 2
29 0 3
29 4 8
29 5 9
29 11 3
29 16 2
29 19 3
29 20 8
29 21 2
29 22 10
29 24 10
29 28 1
